p edge 1561 1521
e 1 2
e 1 3
e 1 4
e 1 5
e 1 6
e 1 7
e 1 8
e 1 9
e 1 10
e 1 11
e 1 12
e 1 13
e 1 14
e 1 15
e 1 16
e 1 17
e 1 18
e 19 20
e 19 21
e 19 22
e 19 23
e 19 24
e 19 25
e 19 26
e 19 27
e 19 28
e 19 29
e 19 30
e 19 31
e 19 32
e 33 34
e 33 35
e 33 36
e 33 37
e 33 38
e 33 39
e 33 40
e 33 41
e 33 42
e 33 43
e 33 44
e 33 45
e 33 46
e 33 47
e 33 48
e 33 49
e 33 50
e 33 51
e 33 52
e 33 53
e 33 54
e 33 55
e 33 56
e 57 58
e 57 59
e 57 60
e 57 61
e 57 62
e 57 63
e 57 64
e 57 65
e 57 66
e 57 67
e 57 68
e 57 69
e 57 70
e 57 71
e 57 72
e 57 73
e 57 74
e 57 75
e 57 76
e 57 77
e 57 78
e 57 79
e 57 80
e 57 81
e 57 82
e 57 83
e 57 84
e 57 85
e 57 86
e 57 87
e 57 88
e 57 89
e 57 90
e 57 91
e 57 92
e 57 93
e 57 94
e 57 95
e 57 96
e 57 97
e 57 98
e 57 99
e 57 100
e 57 101
e 57 102
e 57 103
e 57 104
e 57 105
e 57 106
e 57 107
e 57 108
e 57 109
e 57 110
e 57 111
e 57 112
e 57 113
e 114 115
e 114 116
e 114 117
e 114 118
e 114 119
e 114 120
e 114 121
e 114 122
e 114 123
e 114 124
e 114 125
e 114 126
e 114 127
e 114 128
e 114 129
e 114 130
e 114 131
e 114 132
e 114 133
e 114 134
e 114 135
e 114 136
e 114 137
e 114 138
e 114 139
e 114 140
e 114 141
e 114 142
e 114 143
e 114 144
e 114 145
e 114 146
e 114 147
e 114 148
e 114 149
e 114 150
e 114 151
e 114 152
e 114 153
e 114 154
e 114 155
e 114 156
e 114 157
e 114 158
e 114 159
e 114 160
e 114 161
e 114 162
e 114 163
e 114 164
e 114 165
e 114 166
e 114 167
e 114 168
e 114 169
e 114 170
e 114 171
e 114 172
e 114 173
e 114 174
e 175 176
e 175 177
e 175 178
e 175 179
e 175 180
e 175 181
e 175 182
e 175 183
e 175 184
e 175 185
e 175 186
e 175 187
e 175 188
e 175 189
e 175 190
e 175 191
e 175 192
e 175 193
e 175 194
e 175 195
e 175 196
e 175 197
e 175 198
e 175 199
e 175 200
e 175 201
e 175 202
e 175 203
e 175 204
e 175 205
e 175 206
e 175 207
e 175 208
e 175 209
e 175 210
e 175 211
e 175 212
e 175 213
e 175 214
e 175 215
e 175 216
e 175 217
e 175 218
e 175 219
e 175 220
e 175 221
e 175 222
e 175 223
e 175 224
e 175 225
e 175 226
e 175 227
e 175 228
e 175 229
e 175 230
e 175 231
e 175 232
e 175 233
e 175 234
e 175 235
e 236 237
e 236 238
e 236 239
e 236 240
e 236 241
e 236 242
e 236 243
e 236 244
e 236 245
e 236 246
e 236 247
e 236 248
e 236 249
e 236 250
e 236 251
e 236 252
e 236 253
e 236 254
e 236 255
e 236 256
e 236 257
e 236 258
e 236 259
e 236 260
e 236 261
e 236 262
e 236 263
e 236 264
e 236 265
e 236 266
e 236 267
e 236 268
e 236 269
e 236 270
e 236 271
e 236 272
e 236 273
e 236 274
e 236 275
e 236 276
e 236 277
e 236 278
e 236 279
e 236 280
e 236 281
e 282 283
e 282 284
e 282 285
e 282 286
e 282 287
e 282 288
e 282 289
e 282 290
e 282 291
e 282 292
e 282 293
e 282 294
e 282 295
e 282 296
e 282 297
e 282 298
e 282 299
e 282 300
e 282 301
e 282 302
e 282 303
e 282 304
e 282 305
e 306 307
e 306 308
e 306 309
e 306 310
e 306 311
e 306 312
e 306 313
e 306 314
e 306 315
e 306 316
e 317 318
e 317 319
e 317 320
e 317 321
e 317 322
e 317 323
e 317 324
e 317 325
e 317 326
e 317 327
e 317 328
e 317 329
e 317 330
e 317 331
e 317 332
e 333 334
e 333 335
e 333 336
e 333 337
e 333 338
e 333 339
e 333 340
e 333 341
e 333 342
e 333 343
e 333 344
e 333 345
e 333 346
e 333 347
e 333 348
e 333 349
e 333 350
e 333 351
e 333 352
e 333 353
e 333 354
e 333 355
e 333 356
e 333 357
e 333 358
e 333 359
e 333 360
e 361 362
e 361 363
e 361 364
e 361 365
e 361 366
e 361 367
e 361 368
e 361 369
e 361 370
e 361 371
e 361 372
e 361 373
e 361 374
e 361 375
e 361 376
e 361 377
e 361 378
e 361 379
e 361 380
e 361 381
e 361 382
e 361 383
e 361 384
e 361 385
e 361 386
e 361 387
e 361 388
e 361 389
e 361 390
e 361 391
e 361 392
e 361 393
e 361 394
e 361 395
e 361 396
e 361 397
e 361 398
e 361 399
e 361 400
e 361 401
e 361 402
e 361 403
e 361 404
e 361 405
e 361 406
e 361 407
e 361 408
e 361 409
e 361 410
e 361 411
e 361 412
e 361 413
e 361 414
e 361 415
e 416 417
e 416 418
e 416 419
e 416 420
e 416 421
e 416 422
e 416 423
e 416 424
e 416 425
e 416 426
e 416 427
e 416 428
e 416 429
e 416 430
e 416 431
e 416 432
e 416 433
e 416 434
e 416 435
e 416 436
e 416 437
e 416 438
e 416 439
e 416 440
e 416 441
e 416 442
e 416 443
e 416 444
e 416 445
e 416 446
e 416 447
e 416 448
e 416 449
e 416 450
e 416 451
e 416 452
e 416 453
e 416 454
e 416 455
e 416 456
e 416 457
e 416 458
e 416 459
e 416 460
e 416 461
e 416 462
e 416 463
e 416 464
e 416 465
e 416 466
e 416 467
e 416 468
e 416 469
e 416 470
e 416 471
e 416 472
e 416 473
e 416 474
e 416 475
e 416 476
e 477 478
e 477 479
e 477 480
e 477 481
e 477 482
e 477 483
e 477 484
e 477 485
e 477 486
e 477 487
e 477 488
e 477 489
e 477 490
e 477 491
e 477 492
e 477 493
e 477 494
e 477 495
e 477 496
e 477 497
e 477 498
e 477 499
e 477 500
e 477 501
e 477 502
e 477 503
e 477 504
e 477 505
e 477 506
e 477 507
e 477 508
e 477 509
e 477 510
e 477 511
e 477 512
e 477 513
e 477 514
e 477 515
e 477 516
e 477 517
e 477 518
e 477 519
e 477 520
e 477 521
e 477 522
e 477 523
e 477 524
e 477 525
e 477 526
e 477 527
e 477 528
e 477 529
e 477 530
e 477 531
e 477 532
e 477 533
e 534 535
e 534 536
e 534 537
e 534 538
e 534 539
e 534 540
e 534 541
e 534 542
e 534 543
e 534 544
e 534 545
e 534 546
e 534 547
e 534 548
e 534 549
e 534 550
e 534 551
e 534 552
e 534 553
e 534 554
e 534 555
e 534 556
e 534 557
e 534 558
e 534 559
e 534 560
e 534 561
e 534 562
e 534 563
e 534 564
e 534 565
e 566 567
e 566 568
e 566 569
e 566 570
e 566 571
e 566 572
e 566 573
e 566 574
e 566 575
e 566 576
e 566 577
e 566 578
e 566 579
e 566 580
e 566 581
e 566 582
e 566 583
e 566 584
e 566 585
e 566 586
e 566 587
e 566 588
e 566 589
e 566 590
e 566 591
e 566 592
e 566 593
e 566 594
e 566 595
e 566 596
e 566 597
e 566 598
e 566 599
e 566 600
e 566 601
e 566 602
e 566 603
e 566 604
e 566 605
e 566 606
e 566 607
e 566 608
e 566 609
e 566 610
e 566 611
e 566 612
e 566 613
e 566 614
e 615 616
e 615 617
e 615 618
e 615 619
e 615 620
e 615 621
e 615 622
e 615 623
e 615 624
e 615 625
e 615 626
e 615 627
e 615 628
e 615 629
e 615 630
e 615 631
e 615 632
e 615 633
e 615 634
e 615 635
e 615 636
e 615 637
e 615 638
e 615 639
e 615 640
e 615 641
e 615 642
e 615 643
e 615 644
e 615 645
e 646 647
e 646 648
e 646 649
e 646 650
e 646 651
e 646 652
e 646 653
e 646 654
e 646 655
e 646 656
e 646 657
e 646 658
e 646 659
e 646 660
e 646 661
e 646 662
e 646 663
e 646 664
e 646 665
e 646 666
e 646 667
e 646 668
e 646 669
e 646 670
e 646 671
e 646 672
e 646 673
e 646 674
e 646 675
e 646 676
e 646 677
e 678 679
e 678 680
e 678 681
e 678 682
e 678 683
e 678 684
e 678 685
e 678 686
e 678 687
e 678 688
e 678 689
e 678 690
e 678 691
e 678 692
e 678 693
e 678 694
e 678 695
e 678 696
e 678 697
e 678 698
e 678 699
e 678 700
e 678 701
e 678 702
e 678 703
e 678 704
e 678 705
e 706 707
e 706 708
e 706 709
e 706 710
e 706 711
e 706 712
e 706 713
e 706 714
e 706 715
e 706 716
e 706 717
e 706 718
e 706 719
e 706 720
e 706 721
e 706 722
e 706 723
e 706 724
e 706 725
e 706 726
e 706 727
e 706 728
e 706 729
e 706 730
e 706 731
e 706 732
e 706 733
e 706 734
e 706 735
e 706 736
e 706 737
e 706 738
e 706 739
e 706 740
e 706 741
e 706 742
e 706 743
e 706 744
e 706 745
e 746 747
e 746 748
e 746 749
e 746 750
e 746 751
e 746 752
e 746 753
e 746 754
e 746 755
e 746 756
e 746 757
e 746 758
e 746 759
e 746 760
e 746 761
e 746 762
e 746 763
e 746 764
e 746 765
e 746 766
e 746 767
e 746 768
e 746 769
e 746 770
e 746 771
e 746 772
e 746 773
e 746 774
e 746 775
e 746 776
e 746 777
e 778 779
e 778 780
e 778 781
e 778 782
e 778 783
e 778 784
e 778 785
e 778 786
e 778 787
e 778 788
e 778 789
e 778 790
e 778 791
e 778 792
e 778 793
e 778 794
e 778 795
e 778 796
e 778 797
e 778 798
e 778 799
e 778 800
e 778 801
e 778 802
e 778 803
e 778 804
e 778 805
e 778 806
e 778 807
e 778 808
e 778 809
e 778 810
e 778 811
e 778 812
e 778 813
e 778 814
e 778 815
e 778 816
e 778 817
e 778 818
e 778 819
e 778 820
e 778 821
e 778 822
e 778 823
e 778 824
e 778 825
e 778 826
e 778 827
e 778 828
e 778 829
e 778 830
e 778 831
e 778 832
e 778 833
e 778 834
e 778 835
e 778 836
e 837 838
e 837 839
e 837 840
e 837 841
e 837 842
e 837 843
e 837 844
e 837 845
e 837 846
e 837 847
e 837 848
e 837 849
e 837 850
e 837 851
e 837 852
e 837 853
e 837 854
e 837 855
e 837 856
e 837 857
e 837 858
e 837 859
e 837 860
e 837 861
e 837 862
e 837 863
e 837 864
e 837 865
e 837 866
e 837 867
e 837 868
e 837 869
e 837 870
e 837 871
e 837 872
e 837 873
e 837 874
e 837 875
e 837 876
e 837 877
e 837 878
e 837 879
e 837 880
e 837 881
e 882 883
e 882 884
e 882 885
e 882 886
e 882 887
e 882 888
e 882 889
e 882 890
e 882 891
e 882 892
e 882 893
e 882 894
e 882 895
e 882 896
e 882 897
e 882 898
e 882 899
e 882 900
e 882 901
e 882 902
e 882 903
e 882 904
e 882 905
e 882 906
e 882 907
e 882 908
e 882 909
e 882 910
e 882 911
e 882 912
e 882 913
e 882 914
e 882 915
e 882 916
e 882 917
e 882 918
e 882 919
e 882 920
e 882 921
e 882 922
e 882 923
e 882 924
e 882 925
e 882 926
e 882 927
e 882 928
e 882 929
e 882 930
e 882 931
e 882 932
e 882 933
e 882 934
e 882 935
e 882 936
e 882 937
e 938 939
e 938 940
e 938 941
e 938 942
e 938 943
e 938 944
e 938 945
e 938 946
e 938 947
e 938 948
e 938 949
e 938 950
e 938 951
e 938 952
e 938 953
e 938 954
e 938 955
e 938 956
e 938 957
e 938 958
e 938 959
e 938 960
e 938 961
e 938 962
e 938 963
e 938 964
e 938 965
e 938 966
e 938 967
e 938 968
e 938 969
e 938 970
e 938 971
e 938 972
e 938 973
e 938 974
e 938 975
e 938 976
e 938 977
e 938 978
e 938 979
e 938 980
e 938 981
e 938 982
e 938 983
e 984 985
e 984 986
e 984 987
e 984 988
e 984 989
e 984 990
e 984 991
e 984 992
e 984 993
e 984 994
e 984 995
e 984 996
e 984 997
e 984 998
e 984 999
e 984 1000
e 984 1001
e 984 1002
e 984 1003
e 984 1004
e 984 1005
e 984 1006
e 984 1007
e 984 1008
e 984 1009
e 984 1010
e 984 1011
e 984 1012
e 984 1013
e 984 1014
e 984 1015
e 984 1016
e 984 1017
e 984 1018
e 984 1019
e 984 1020
e 984 1021
e 984 1022
e 984 1023
e 984 1024
e 984 1025
e 1026 1027
e 1026 1028
e 1026 1029
e 1026 1030
e 1026 1031
e 1026 1032
e 1026 1033
e 1026 1034
e 1026 1035
e 1026 1036
e 1026 1037
e 1026 1038
e 1026 1039
e 1026 1040
e 1026 1041
e 1026 1042
e 1026 1043
e 1026 1044
e 1026 1045
e 1026 1046
e 1026 1047
e 1026 1048
e 1026 1049
e 1026 1050
e 1026 1051
e 1026 1052
e 1026 1053
e 1026 1054
e 1026 1055
e 1056 1057
e 1056 1058
e 1056 1059
e 1056 1060
e 1056 1061
e 1056 1062
e 1056 1063
e 1056 1064
e 1056 1065
e 1056 1066
e 1056 1067
e 1056 1068
e 1056 1069
e 1056 1070
e 1056 1071
e 1056 1072
e 1056 1073
e 1056 1074
e 1056 1075
e 1056 1076
e 1056 1077
e 1056 1078
e 1056 1079
e 1056 1080
e 1056 1081
e 1056 1082
e 1056 1083
e 1056 1084
e 1056 1085
e 1056 1086
e 1056 1087
e 1056 1088
e 1056 1089
e 1056 1090
e 1056 1091
e 1056 1092
e 1056 1093
e 1056 1094
e 1056 1095
e 1056 1096
e 1056 1097
e 1056 1098
e 1056 1099
e 1056 1100
e 1056 1101
e 1056 1102
e 1056 1103
e 1056 1104
e 1056 1105
e 1056 1106
e 1056 1107
e 1056 1108
e 1056 1109
e 1056 1110
e 1056 1111
e 1056 1112
e 1056 1113
e 1114 1115
e 1114 1116
e 1114 1117
e 1114 1118
e 1114 1119
e 1114 1120
e 1114 1121
e 1114 1122
e 1114 1123
e 1114 1124
e 1114 1125
e 1114 1126
e 1114 1127
e 1114 1128
e 1114 1129
e 1114 1130
e 1114 1131
e 1114 1132
e 1114 1133
e 1114 1134
e 1114 1135
e 1114 1136
e 1114 1137
e 1114 1138
e 1114 1139
e 1114 1140
e 1114 1141
e 1114 1142
e 1114 1143
e 1114 1144
e 1114 1145
e 1114 1146
e 1114 1147
e 1114 1148
e 1114 1149
e 1114 1150
e 1114 1151
e 1114 1152
e 1114 1153
e 1114 1154
e 1114 1155
e 1114 1156
e 1114 1157
e 1114 1158
e 1114 1159
e 1114 1160
e 1114 1161
e 1114 1162
e 1114 1163
e 1114 1164
e 1114 1165
e 1114 1166
e 1114 1167
e 1114 1168
e 1114 1169
e 1114 1170
e 1114 1171
e 1114 1172
e 1114 1173
e 1174 1175
e 1174 1176
e 1174 1177
e 1174 1178
e 1174 1179
e 1174 1180
e 1174 1181
e 1174 1182
e 1174 1183
e 1174 1184
e 1174 1185
e 1174 1186
e 1174 1187
e 1174 1188
e 1189 1190
e 1189 1191
e 1189 1192
e 1189 1193
e 1189 1194
e 1189 1195
e 1189 1196
e 1189 1197
e 1189 1198
e 1189 1199
e 1189 1200
e 1189 1201
e 1189 1202
e 1189 1203
e 1189 1204
e 1189 1205
e 1189 1206
e 1189 1207
e 1189 1208
e 1189 1209
e 1189 1210
e 1211 1212
e 1211 1213
e 1211 1214
e 1211 1215
e 1211 1216
e 1211 1217
e 1211 1218
e 1211 1219
e 1211 1220
e 1211 1221
e 1211 1222
e 1211 1223
e 1211 1224
e 1211 1225
e 1211 1226
e 1211 1227
e 1211 1228
e 1211 1229
e 1211 1230
e 1211 1231
e 1211 1232
e 1211 1233
e 1211 1234
e 1211 1235
e 1211 1236
e 1211 1237
e 1211 1238
e 1211 1239
e 1211 1240
e 1211 1241
e 1211 1242
e 1211 1243
e 1211 1244
e 1211 1245
e 1211 1246
e 1211 1247
e 1211 1248
e 1211 1249
e 1211 1250
e 1211 1251
e 1211 1252
e 1211 1253
e 1211 1254
e 1211 1255
e 1211 1256
e 1211 1257
e 1211 1258
e 1211 1259
e 1211 1260
e 1211 1261
e 1211 1262
e 1211 1263
e 1211 1264
e 1211 1265
e 1211 1266
e 1211 1267
e 1211 1268
e 1211 1269
e 1211 1270
e 1211 1271
e 1272 1273
e 1272 1274
e 1272 1275
e 1272 1276
e 1272 1277
e 1272 1278
e 1272 1279
e 1272 1280
e 1272 1281
e 1272 1282
e 1272 1283
e 1272 1284
e 1272 1285
e 1272 1286
e 1272 1287
e 1272 1288
e 1289 1290
e 1289 1291
e 1289 1292
e 1289 1293
e 1289 1294
e 1289 1295
e 1289 1296
e 1289 1297
e 1289 1298
e 1289 1299
e 1289 1300
e 1289 1301
e 1289 1302
e 1289 1303
e 1289 1304
e 1289 1305
e 1306 1307
e 1306 1308
e 1306 1309
e 1306 1310
e 1306 1311
e 1306 1312
e 1306 1313
e 1306 1314
e 1306 1315
e 1306 1316
e 1306 1317
e 1306 1318
e 1306 1319
e 1306 1320
e 1306 1321
e 1306 1322
e 1306 1323
e 1306 1324
e 1306 1325
e 1306 1326
e 1306 1327
e 1306 1328
e 1306 1329
e 1306 1330
e 1306 1331
e 1306 1332
e 1306 1333
e 1306 1334
e 1306 1335
e 1306 1336
e 1306 1337
e 1306 1338
e 1306 1339
e 1306 1340
e 1306 1341
e 1306 1342
e 1306 1343
e 1306 1344
e 1306 1345
e 1306 1346
e 1306 1347
e 1306 1348
e 1306 1349
e 1306 1350
e 1351 1352
e 1351 1353
e 1351 1354
e 1351 1355
e 1351 1356
e 1351 1357
e 1351 1358
e 1351 1359
e 1351 1360
e 1351 1361
e 1351 1362
e 1363 1364
e 1363 1365
e 1363 1366
e 1363 1367
e 1363 1368
e 1363 1369
e 1363 1370
e 1363 1371
e 1363 1372
e 1363 1373
e 1363 1374
e 1363 1375
e 1363 1376
e 1363 1377
e 1363 1378
e 1363 1379
e 1363 1380
e 1363 1381
e 1363 1382
e 1363 1383
e 1363 1384
e 1363 1385
e 1363 1386
e 1363 1387
e 1363 1388
e 1363 1389
e 1363 1390
e 1363 1391
e 1363 1392
e 1363 1393
e 1363 1394
e 1363 1395
e 1363 1396
e 1363 1397
e 1363 1398
e 1363 1399
e 1363 1400
e 1363 1401
e 1363 1402
e 1363 1403
e 1363 1404
e 1363 1405
e 1363 1406
e 1363 1407
e 1363 1408
e 1363 1409
e 1363 1410
e 1363 1411
e 1363 1412
e 1363 1413
e 1363 1414
e 1415 1416
e 1415 1417
e 1415 1418
e 1415 1419
e 1415 1420
e 1415 1421
e 1415 1422
e 1415 1423
e 1415 1424
e 1415 1425
e 1415 1426
e 1415 1427
e 1415 1428
e 1415 1429
e 1415 1430
e 1415 1431
e 1415 1432
e 1415 1433
e 1415 1434
e 1415 1435
e 1415 1436
e 1415 1437
e 1415 1438
e 1415 1439
e 1415 1440
e 1415 1441
e 1415 1442
e 1415 1443
e 1415 1444
e 1415 1445
e 1415 1446
e 1415 1447
e 1415 1448
e 1415 1449
e 1415 1450
e 1415 1451
e 1415 1452
e 1415 1453
e 1415 1454
e 1415 1455
e 1415 1456
e 1415 1457
e 1415 1458
e 1459 1460
e 1459 1461
e 1459 1462
e 1459 1463
e 1459 1464
e 1459 1465
e 1459 1466
e 1459 1467
e 1459 1468
e 1459 1469
e 1459 1470
e 1459 1471
e 1459 1472
e 1459 1473
e 1459 1474
e 1459 1475
e 1459 1476
e 1459 1477
e 1459 1478
e 1459 1479
e 1459 1480
e 1459 1481
e 1459 1482
e 1459 1483
e 1459 1484
e 1459 1485
e 1459 1486
e 1459 1487
e 1459 1488
e 1459 1489
e 1459 1490
e 1459 1491
e 1459 1492
e 1459 1493
e 1459 1494
e 1459 1495
e 1459 1496
e 1459 1497
e 1459 1498
e 1459 1499
e 1459 1500
e 1459 1501
e 1459 1502
e 1459 1503
e 1459 1504
e 1459 1505
e 1459 1506
e 1507 1508
e 1507 1509
e 1507 1510
e 1507 1511
e 1507 1512
e 1507 1513
e 1507 1514
e 1507 1515
e 1507 1516
e 1507 1517
e 1507 1518
e 1507 1519
e 1507 1520
e 1507 1521
e 1507 1522
e 1507 1523
e 1507 1524
e 1507 1525
e 1507 1526
e 1507 1527
e 1507 1528
e 1507 1529
e 1507 1530
e 1507 1531
e 1507 1532
e 1507 1533
e 1507 1534
e 1507 1535
e 1507 1536
e 1507 1537
e 1507 1538
e 1507 1539
e 1507 1540
e 1507 1541
e 1507 1542
e 1507 1543
e 1507 1544
e 1507 1545
e 1507 1546
e 1507 1547
e 1507 1548
e 1507 1549
e 1507 1550
e 1507 1551
e 1507 1552
e 1507 1553
e 1507 1554
e 1507 1555
e 1507 1556
e 1507 1557
e 1507 1558
e 1507 1559
e 1507 1560
e 1507 1561
